Problem:    
Rows:       20
Columns:    60 (55 integer, 55 binary)
Non-zeros:  165
Status:     INTEGER OPTIMAL
Objective:  OBJ = 600 (MINimum)

   No.   Row name        Activity     Lower bound   Upper bound
------ ------------    ------------- ------------- -------------
     1 _C1                         0             0             = 
     2 _C10                        0                           0 
     3 _C11                        1             1             = 
     4 _C12                        1             1             = 
     5 _C13                        1             1             = 
     6 _C14                        1             1             = 
     7 _C15                        1             1             = 
     8 _C16                        1             1             = 
     9 _C17                        1             1             = 
    10 _C18                        1             1             = 
    11 _C19                        1             1             = 
    12 _C2                         0             0             = 
    13 _C20                        1             1             = 
    14 _C3                         0             0             = 
    15 _C4                         0             0             = 
    16 _C5                         0             0             = 
    17 _C6                        -3                           0 
    18 _C7                         0                           0 
    19 _C8                        -1                           0 
    20 _C9                         0                           0 

   No. Column name       Activity     Lower bound   Upper bound
------ ------------    ------------- ------------- -------------
     1 M_0                       160             0               
     2 M_1                       160             0               
     3 M_2                       140             0               
     4 M_3                       140             0               
     5 M_4                         0             0               
     6 C_0_0        *              0             0             1 
     7 C_1_0        *              0             0             1 
     8 C_2_0        *              0             0             1 
     9 C_3_0        *              1             0             1 
    10 C_4_0        *              0             0             1 
    11 C_5_0        *              0             0             1 
    12 C_6_0        *              1             0             1 
    13 C_7_0        *              1             0             1 
    14 C_8_0        *              0             0             1 
    15 C_9_0        *              0             0             1 
    16 P_0          *              1             0             1 
    17 C_0_4        *              0             0             1 
    18 C_1_4        *              0             0             1 
    19 C_2_4        *              0             0             1 
    20 C_3_4        *              0             0             1 
    21 C_4_4        *              0             0             1 
    22 C_5_4        *              0             0             1 
    23 C_6_4        *              0             0             1 
    24 C_7_4        *              0             0             1 
    25 C_8_4        *              0             0             1 
    26 C_9_4        *              0             0             1 
    27 P_4          *              0             0             1 
    28 C_0_1        *              1             0             1 
    29 C_0_2        *              0             0             1 
    30 C_0_3        *              0             0             1 
    31 C_1_1        *              0             0             1 
    32 C_1_2        *              0             0             1 
    33 C_1_3        *              1             0             1 
    34 C_2_1        *              0             0             1 
    35 C_2_2        *              1             0             1 
    36 C_2_3        *              0             0             1 
    37 C_3_1        *              0             0             1 
    38 C_3_2        *              0             0             1 
    39 C_3_3        *              0             0             1 
    40 C_4_1        *              0             0             1 
    41 C_4_2        *              1             0             1 
    42 C_4_3        *              0             0             1 
    43 C_5_1        *              1             0             1 
    44 C_5_2        *              0             0             1 
    45 C_5_3        *              0             0             1 
    46 C_6_1        *              0             0             1 
    47 C_6_2        *              0             0             1 
    48 C_6_3        *              0             0             1 
    49 C_7_1        *              0             0             1 
    50 C_7_2        *              0             0             1 
    51 C_7_3        *              0             0             1 
    52 C_8_1        *              1             0             1 
    53 C_8_2        *              0             0             1 
    54 C_8_3        *              0             0             1 
    55 C_9_1        *              0             0             1 
    56 P_1          *              1             0             1 
    57 C_9_2        *              0             0             1 
    58 C_9_3        *              1             0             1 
    59 P_2          *              1             0             1 
    60 P_3          *              1             0             1 

Integer feasibility conditions:

KKT.PE: max.abs.err = 0.00e+00 on row 0
        max.rel.err = 0.00e+00 on row 0
        High quality

KKT.PB: max.abs.err = 0.00e+00 on row 0
        max.rel.err = 0.00e+00 on row 0
        High quality

End of output
